p cnf 69 177                
5 -67 0
6 -67 0
4 -66 0
5 -66 0
6 -66 0
4 -65 0
6 -65 0
4 -64 0
5 -64 0
3 -63 0
4 -63 0
5 -63 0
6 -63 0
3 -62 0
5 -62 0
6 -62 0
3 -61 0
4 -61 0
6 -61 0
3 -60 0
4 -60 0
5 -60 0
3 -59 0
6 -59 0
3 -58 0
5 -58 0
3 -57 0
4 -57 0
2 -56 0
4 -56 0
5 -56 0
6 -56 0
2 -55 0
3 -55 0
5 -55 0
6 -55 0
2 -54 0
3 -54 0
4 -54 0
6 -54 0
2 -53 0
3 -53 0
4 -53 0
5 -53 0
2 -52 0
5 -52 0
6 -52 0
2 -51 0
4 -51 0
6 -51 0
2 -50 0
4 -50 0
5 -50 0
2 -49 0
3 -49 0
6 -49 0
2 -48 0
3 -48 0
5 -48 0
2 -47 0
3 -47 0
4 -47 0
2 -46 0
6 -46 0
2 -45 0
5 -45 0
2 -44 0
4 -44 0
2 -43 0
3 -43 0
1 -42 0
4 -42 0
5 -42 0
6 -42 0
1 -41 0
3 -41 0
5 -41 0
6 -41 0
1 -40 0
3 -40 0
4 -40 0
6 -40 0
1 -39 0
3 -39 0
4 -39 0
5 -39 0
1 -38 0
2 -38 0
5 -38 0
6 -38 0
1 -37 0
2 -37 0
4 -37 0
6 -37 0
1 -36 0
2 -36 0
4 -36 0
5 -36 0
1 -35 0
2 -35 0
3 -35 0
6 -35 0
1 -34 0
2 -34 0
3 -34 0
5 -34 0
1 -33 0
2 -33 0
3 -33 0
4 -33 0
1 -32 0
5 -32 0
6 -32 0
1 -31 0
4 -31 0
6 -31 0
1 -30 0
4 -30 0
5 -30 0
1 -29 0
3 -29 0
6 -29 0
1 -28 0
3 -28 0
5 -28 0
1 -27 0
3 -27 0
4 -27 0
1 -26 0
2 -26 0
6 -26 0
1 -25 0
2 -25 0
5 -25 0
1 -24 0
2 -24 0
4 -24 0
1 -23 0
2 -23 0
3 -23 0
1 -22 0
6 -22 0
1 -21 0
5 -21 0
1 -20 0
4 -20 0
1 -19 0
3 -19 0
1 -18 0
2 -18 0
67 66 65 64 63 62 61 60 59 58 57 56 55 54 53 52 51 50 49 48 47 46 45 44 43 42 41 40 39 38 37 36 35 34 33 32 31 30 29 28 27 26 25 24 23 22 21 20 19 18 68 0
-2 -1 -7 0
7 -17 0
-1 8 0
-2 8 0
1 2 -8 0
-8 -3 -9 0
9 -17 0
-3 10 0
-8 10 0
3 8 -10 0
-10 -4 -11 0
11 -17 0
-4 12 0
-10 12 0
4 10 -12 0
-12 -5 -13 0
13 -17 0
-5 14 0
-12 14 0
5 12 -14 0
-14 -6 -15 0
15 -17 0
6 14 -16 0
16 -17 0
-68 0
17 0
